n = 25
Q1 = [0 50 24 27 36 21 50 21 42 20 37 31 16 25 19 30 21 43 19 48 27 29 22 47 46; 0 0 17 50 24 20 44 47 46 14 15 36 21 42 31 12 9 45 44 20 19 40 12 13 50; 0 0 0 34 15 23 43 8 7 8 32 37 13 17 46 47 42 28 20 29 27 18 33 44 30; 0 0 0 0 7 13 17 7 45 8 31 48 9 45 11 32 30 43 33 12 39 20 36 33 27; 0 0 0 0 0 40 13 13 6 26 22 23 17 28 46 16 22 27 15 21 34 12 32 31 13; 0 0 0 0 0 0 45 31 21 13 28 22 16 50 38 10 28 23 45 10 23 45 19 30 26; 0 0 0 0 0 0 0 46 23 44 33 29 7 23 7 17 6 42 26 49 8 31 38 23 14; 0 0 0 0 0 0 0 0 27 43 16 5 12 46 36 35 16 19 11 50 50 42 11 5 34; 0 0 0 0 0 0 0 0 0 26 41 16 17 43 45 18 32 27 41 19 40 15 34 16 41; 0 0 0 0 0 0 0 0 0 0 14 16 31 16 26 25 49 19 28 30 6 17 42 47 26; 0 0 0 0 0 0 0 0 0 0 0 46 16 31 45 25 7 38 35 19 49 12 32 12 23; 0 0 0 0 0 0 0 0 0 0 0 0 20 11 33 37 8 47 19 13 43 7 22 23 24; 0 0 0 0 0 0 0 0 0 0 0 0 0 30 9 20 44 23 29 24 46 37 9 5 43; 0 0 0 0 0 0 0 0 0 0 0 0 0 0 41 38 5 27 27 36 46 5 47 9 32; 0 0 0 0 0 0 0 0 0 0 0 0 0 0 0 29 26 38 18 40 27 36 24 38 40; 0 0 0 0 0 0 0 0 0 0 0 0 0 0 0 0 25 43 40 50 18 18 15 41 25; 0 0 0 0 0 0 0 0 0 0 0 0 0 0 0 0 0 28 20 33 10 38 21 5 38; 0 0 0 0 0 0 0 0 0 0 0 0 0 0 0 0 0 0 22 7 39 39 13 38 40; 0 0 0 0 0 0 0 0 0 0 0 0 0 0 0 0 0 0 0 33 48 17 45 8 38; 0 0 0 0 0 0 0 0 0 0 0 0 0 0 0 0 0 0 0 0 33 14 42 29 18; 0 0 0 0 0 0 0 0 0 0 0 0 0 0 0 0 0 0 0 0 0 44 26 37 48; 0 0 0 0 0 0 0 0 0 0 0 0 0 0 0 0 0 0 0 0 0 0 43 25 19; 0 0 0 0 0 0 0 0 0 0 0 0 0 0 0 0 0 0 0 0 0 0 0 45 12; 0 0 0 0 0 0 0 0 0 0 0 0 0 0 0 0 0 0 0 0 0 0 0 0 14; 0 0 0 0 0 0 0 0 0 0 0 0 0 0 0 0 0 0 0 0 0 0 0 0 0]
Q2=[0.0 0.0 30.0 17.0 4.0 33.0 0.0 40.0 0.0 46.0 9.0 1.0 35.0 1.0 34.0 6.0 29.0 0.0 48.0 0.0 23.0 8.0 43.0 1.0 3.0; 0.0 0.0 39.0 0.0 26.0 40.0 1.0 2.0 1.0 46.0 46.0 3.0 42.0 6.0 10.0 39.0 49.0 3.0 3.0 34.0 36.0 1.0 46.0 42.0 0.0; 0.0 0.0 0.0 4.0 47.0 34.0 3.0 48.0 46.0 45.0 16.0 0.0 38.0 46.0 1.0 1.0 7.0 7.0 38.0 3.0 13.0 35.0 12.0 0.0 0.0; 0.0 0.0 0.0 0.0 47.0 48.0 49.0 47.0 0.0 46.0 5.0 0.0 45.0 1.0 49.0 2.0 18.0 5.0 15.0 44.0 0.0 48.0 8.0 0.0 6.0; 0.0 0.0 0.0 0.0 0.0 0.0 47.0 46.0 47.0 5.0 32.0 47.0 43.0 7.0 0.0 50.0 42.0 11.0 43.0 46.0 3.0 38.0 1.0 0.0 48.0; 0.0 0.0 0.0 0.0 0.0 0.0 3.0 10.0 41.0 38.0 1.0 28.0 49.0 0.0 4.0 45.0 20.0 48.0 2.0 48.0 48.0 0.0 42.0 12.0 16.0; 0.0 0.0 0.0 0.0 0.0 0.0 0.0 2.0 39.0 6.0 10.0 12.0 50.0 27.0 50.0 37.0 47.0 1.0 2.0 0.0 43.0 2.0 4.0 49.0 49.0; 0.0 0.0 0.0 0.0 0.0 0.0 0.0 0.0 3.0 5.0 39.0 49.0 43.0 1.0 13.0 4.0 47.0 49.0 50.0 0.0 0.0 0.0 39.0 46.0 8.0; 0.0 0.0 0.0 0.0 0.0 0.0 0.0 0.0 0.0 17.0 8.0 50.0 43.0 6.0 0.0 34.0 16.0 17.0 3.0 31.0 2.0 42.0 6.0 36.0 2.0; 0.0 0.0 0.0 0.0 0.0 0.0 0.0 0.0 0.0 0.0 48.0 40.0 4.0 42.0 4.0 23.0 0.0 41.0 20.0 8.0 47.0 50.0 5.0 3.0 7.0; 0.0 0.0 0.0 0.0 0.0 0.0 0.0 0.0 0.0 0.0 0.0 4.0 38.0 18.0 1.0 2.0 46.0 3.0 8.0 41.0 0.0 39.0 6.0 48.0 30.0; 0.0 0.0 0.0 0.0 0.0 0.0 0.0 0.0 0.0 0.0 0.0 0.0 39.0 49.0 14.0 6.0 47.0 2.0 37.0 49.0 0.0 46.0 43.0 38.0 39.0; 0.0 0.0 0.0 0.0 0.0 0.0 0.0 0.0 0.0 0.0 0.0 0.0 0.0 7.0 41.0 34.0 1.0 36.0 18.0 46.0 2.0 2.0 48.0 48.0 7.0; 0.0 0.0 0.0 0.0 0.0 0.0 0.0 0.0 0.0 0.0 0.0 0.0 0.0 0.0 2.0 8.0 49.0 1.0 12.0 0.0 2.0 49.0 1.0 46.0 14.0; 0.0 0.0 0.0 0.0 0.0 0.0 0.0 0.0 0.0 0.0 0.0 0.0 0.0 0.0 0.0 10.0 8.0 1.0 44.0 10.0 12.0 3.0 42.0 2.0 6.0; 0.0 0.0 0.0 0.0 0.0 0.0 0.0 0.0 0.0 0.0 0.0 0.0 0.0 0.0 0.0 0.0 14.0 0.0 5.0 0.0 33.0 48.0 47.0 0.0 23.0; 0.0 0.0 0.0 0.0 0.0 0.0 0.0 0.0 0.0 0.0 0.0 0.0 0.0 0.0 0.0 0.0 0.0 20.0 35.0 0.0 50.0 4.0 29.0 47.0 9.0; 0.0 0.0 0.0 0.0 0.0 0.0 0.0 0.0 0.0 0.0 0.0 0.0 0.0 0.0 0.0 0.0 0.0 0.0 36.0 46.0 6.0 1.0 40.0 8.0 10.0; 0.0 0.0 0.0 0.0 0.0 0.0 0.0 0.0 0.0 0.0 0.0 0.0 0.0 0.0 0.0 0.0 0.0 0.0 0.0 4.0 2.0 48.0 3.0 46.0 3.0; 0.0 0.0 0.0 0.0 0.0 0.0 0.0 0.0 0.0 0.0 0.0 0.0 0.0 0.0 0.0 0.0 0.0 0.0 0.0 0.0 1.0 38.0 5.0 0.0 49.0; 0.0 0.0 0.0 0.0 0.0 0.0 0.0 0.0 0.0 0.0 0.0 0.0 0.0 0.0 0.0 0.0 0.0 0.0 0.0 0.0 0.0 2.0 14.0 0.0 1.0; 0.0 0.0 0.0 0.0 0.0 0.0 0.0 0.0 0.0 0.0 0.0 0.0 0.0 0.0 0.0 0.0 0.0 0.0 0.0 0.0 0.0 0.0 4.0 22.0 44.0; 0.0 0.0 0.0 0.0 0.0 0.0 0.0 0.0 0.0 0.0 0.0 0.0 0.0 0.0 0.0 0.0 0.0 0.0 0.0 0.0 0.0 0.0 0.0 0.0 41.0; 0.0 0.0 0.0 0.0 0.0 0.0 0.0 0.0 0.0 0.0 0.0 0.0 0.0 0.0 0.0 0.0 0.0 0.0 0.0 0.0 0.0 0.0 0.0 0.0 48.0; 0.0 0.0 0.0 0.0 0.0 0.0 0.0 0.0 0.0 0.0 0.0 0.0 0.0 0.0 0.0 0.0 0.0 0.0 0.0 0.0 0.0 0.0 0.0 0.0 0.0]
